(declare-fun b_ack!198 () (_ BitVec 32))
(declare-fun a_ack!200 () (_ BitVec 32))
(declare-fun c_ack!199 () (_ BitVec 64))
(assert (not (bvslt b_ack!198 #x00000000)))
(assert (not (bvslt a_ack!200 b_ack!198)))
(assert (not (fp.lt ((_ to_fp 11 53) c_ack!199) ((_ to_fp 11 53) #xbff0000000000000))))
(assert (not (fp.gt ((_ to_fp 11 53) c_ack!199) ((_ to_fp 11 53) #x3ff0000000000000))))
(assert (= #x00000000 b_ack!198))
(assert (bvslt a_ack!200 #x00000000))

(check-sat)
(exit)
